3 10
107 118 100 
0 62 72 94 90 5 9 82 12 2 20 79 11 2
1 102 100 41 35 67 69 52 98 89 28 22 100 1
2 2 2 79 73 33 43 29 7 99 6 27 64 2
3 96 99 47 46 104 100 32 98 78 98 26 10 2
4 37 40 91 91 29 33 14 41 73 68 54 95 3
5 31 26 78 72 33 27 3 8 88 6 78 55 1
6 5 5 26 32 68 58 22 65 31 92 14 66 3
7 59 52 89 90 29 29 43 75 3 59 34 64 2
8 92 89 48 56 25 22 84 39 50 87 23 11 3
9 43 50 7 5 50 51 70 68 8 63 62 95 2
